&CONTROL
   calculation      = 'scf'
   restart_mode     = 'from_scratch'
   tprnfor          = .true.
   etot_conv_thr    = 1e-05
   forc_conv_thr    = 0.0001
/
&SYSTEM
   ecutwfc          = 30
   ecutrho          = 240
   occupations      = 'smearing'
   degauss          = 0.0045
   smearing         = 'fermi-dirac'
   ntyp             = 1
   nat              = 1
   ibrav            = 0
/
&ELECTRONS
   conv_thr         = 1e-08
   mixing_mode      = 'plain'
   mixing_beta      = 0.6
   diagonalization  = 'ppcg'
   startingwfc      = 'atomic+random'
/
&IONS
/
&CELL
/
&FCP
/
&RISM
/
ATOMIC_SPECIES
Ca 40.078 Ca_pbe_v1.uspp.F.UPF

K_POINTS automatic
32 32 32  0 0 0

CELL_PARAMETERS angstrom
3.94340407000000 0.00000000000000 0.00000000000000
1.97170124177398 3.41508776323279 0.00000000000000
1.97170165199686 1.13836304781033 3.21977688500545

ATOMIC_POSITIONS angstrom
Ca 0.0000000000 0.0000000000 0.0000000000  

